; benchmark generated from python API
(set-info :status unknown)
(declare-fun x_month () Int)
(declare-fun x_day () Int)
(declare-fun x_year () Int)
(assert
 (>= x_month 1))
(assert
 (<= x_month 12))
(assert
 (>= x_day 1))
(assert
 (<= x_day 31))
(assert
 (let (($x1044 (<= x_day 28)))
 (let (($x1057 (<= x_day 29)))
 (let (($x1054 (= (mod x_year 400) 0)))
 (let (($x1055 (= (mod x_year 4) 0)))
 (let (($x1037 (ite (or (and $x1055 (and (distinct (mod x_year 100) 0) true)) $x1054) $x1057 $x1044)))
 (let (($x1068 (= x_month 2)))
 (ite $x1068 $x1037 true))))))))
(assert
 (let (($x1016 (<= x_day 30)))
 (let (($x1017 (or (= x_month 4) (= x_month 6) (= x_month 9) (= x_month 11))))
 (ite $x1017 $x1016 true))))
(assert
 (let (($x998 (= x_day 29)))
 (let (($x1068 (= x_month 2)))
 (let (($x1015 (= x_year 2020)))
 (and $x1015 $x1068 $x998)))))
(assert
 (let ((?x1000 (+ (mod (- (+ x_month (+ (* 1 12) 0)) 1) 12) 1)))
 (let ((?x999 (ite (or (= ?x1000 4) (= ?x1000 6) (= ?x1000 9) (= ?x1000 11)) 30 31)))
 (let ((?x1027 (+ 0 (div (- (+ x_month (+ (* 1 12) 0)) 1) 12))))
 (let ((?x1045 (+ x_year ?x1027)))
 (let (($x1007 (or (and (= (mod ?x1045 4) 0) (and (distinct (mod ?x1045 100) 0) true)) (= (mod ?x1045 400) 0))))
 (let ((?x1002 (ite (= ?x1000 2) (ite $x1007 29 28) ?x999)))
 (let ((?x938 (ite (< x_day 1) 1 (ite (> x_day ?x1002) ?x1002 x_day))))
 (let ((?x942 (ite (< ?x938 1) 1 (ite (> ?x938 ?x1002) ?x1002 ?x938))))
 (let ((?x928 (ite (= 2 ?x1000) (ite $x1007 31 31) (ite (= 1 ?x1000) (ite $x1007 0 0) 0))))
 (let ((?x861 (ite (= 4 ?x1000) (ite $x1007 91 90) (ite (= 3 ?x1000) (ite $x1007 60 59) ?x928))))
 (let ((?x888 (ite (= 6 ?x1000) (ite $x1007 152 151) (ite (= 5 ?x1000) (ite $x1007 121 120) ?x861))))
 (let ((?x899 (ite (= 8 ?x1000) (ite $x1007 213 212) (ite (= 7 ?x1000) (ite $x1007 182 181) ?x888))))
 (let ((?x866 (ite (= 10 ?x1000) (ite $x1007 274 273) (ite (= 9 ?x1000) (ite $x1007 244 243) ?x899))))
 (let ((?x956 (ite (= 12 ?x1000) (ite $x1007 335 334) (ite (= 11 ?x1000) (ite $x1007 305 304) ?x866))))
 (let ((?x901 (- (+ (* 365 (- ?x1045 1)) (div (- ?x1045 1) 4)) (div (- ?x1045 1) 100))))
 (let ((?x963 (- (+ (+ (+ ?x901 (div (- ?x1045 1) 400)) ?x956) (- ?x942 1)) 730179)))
 (let ((?x960 (+ (+ ?x963 0) 730179)))
 (let ((?x975 (mod ?x960 146097)))
 (let ((?x971 (div ?x975 36524)))
 (let ((?x990 (ite (<= 4 ?x971) 3 ?x971)))
 (let ((?x1038 (- ?x975 (* ?x990 36524))))
 (let ((?x988 (mod ?x1038 1461)))
 (let ((?x978 (div ?x988 365)))
 (let ((?x976 (ite (<= 4 ?x978) 3 ?x978)))
 (let ((?x955 (+ (+ (* (div ?x960 146097) 400) (* ?x990 100)) (* (div ?x1038 1461) 4))))
 (let ((?x922 (+ (+ ?x955 ?x976) 1)))
 (let (($x920 (or (and (= (mod ?x922 4) 0) (and (distinct (mod ?x922 100) 0) true)) (= (mod ?x922 400) 0))))
 (let ((?x961 (- ?x988 (* ?x976 365))))
 (let ((?x924 (ite $x920 31 31)))
 (let (($x854 (>= ?x961 ?x924)))
 (let ((?x730 (ite $x854 (+ (- ?x961 ?x924) 1) (+ (- ?x961 (ite $x920 0 0)) 1))))
 (let ((?x925 (ite $x920 60 59)))
 (let (($x835 (>= ?x961 ?x925)))
 (let ((?x912 (ite $x920 91 90)))
 (let (($x858 (>= ?x961 ?x912)))
 (let ((?x836 (ite $x858 (+ (- ?x961 ?x912) 1) (ite $x835 (+ (- ?x961 ?x925) 1) ?x730))))
 (let ((?x905 (ite $x920 121 120)))
 (let (($x846 (>= ?x961 ?x905)))
 (let ((?x906 (ite $x920 152 151)))
 (let (($x829 (>= ?x961 ?x906)))
 (let ((?x820 (ite $x829 (+ (- ?x961 ?x906) 1) (ite $x846 (+ (- ?x961 ?x905) 1) ?x836))))
 (let ((?x907 (ite $x920 182 181)))
 (let (($x840 (>= ?x961 ?x907)))
 (let ((?x908 (ite $x920 213 212)))
 (let (($x830 (>= ?x961 ?x908)))
 (let ((?x786 (ite $x830 (+ (- ?x961 ?x908) 1) (ite $x840 (+ (- ?x961 ?x907) 1) ?x820))))
 (let ((?x850 (ite $x920 244 243)))
 (let (($x842 (>= ?x961 ?x850)))
 (let ((?x851 (ite $x920 274 273)))
 (let (($x844 (>= ?x961 ?x851)))
 (let ((?x801 (ite $x844 (+ (- ?x961 ?x851) 1) (ite $x842 (+ (- ?x961 ?x850) 1) ?x786))))
 (let ((?x852 (ite $x920 305 304)))
 (let (($x832 (>= ?x961 ?x852)))
 (let ((?x853 (ite $x920 335 334)))
 (let (($x743 (>= ?x961 ?x853)))
 (let ((?x795 (ite $x743 (+ (- ?x961 ?x853) 1) (ite $x832 (+ (- ?x961 ?x852) 1) ?x801))))
 (let (($x944 (= 0 0)))
 (let ((?x828 (ite $x846 5 (ite $x858 4 (ite $x835 3 (ite $x854 2 1))))))
 (let ((?x843 (ite $x842 9 (ite $x830 8 (ite $x840 7 (ite $x829 6 ?x828))))))
 (let (($x1031 (= (ite $x944 ?x1000 (ite $x743 12 (ite $x832 11 (ite $x844 10 ?x843)))) 2)))
 (and (= (ite $x944 ?x1045 ?x922) 2021) $x1031 (= (ite $x944 ?x942 ?x795) 28)))))))))))))))))))))))))))))))))))))))))))))))))))))))))))))))
(assert
 (let (($x998 (= x_day 29)))
(let (($x1068 (= x_month 2)))
(let (($x1015 (= x_year 2020)))
(and $x1015 $x1068 $x998)))))
(check-sat)
